200
1000
379
378
372
372
372
370
370
368
368
365
364
364
363
358
357
356
355
353
348
344
343
343
341
340
339
339
336
332
331
331
325
323
323
323
321
320
319
318
316
315
313
312
306
304
302
301
301
298
297
296
292
292
290
288
286
286
285
283
277
272
270
267
266
266
261
261
258
256
254
253
252
252
252
251
250
249
248
242
242
236
236
235
233
230
230
226
225
223
220
219
215
213
208
206
203
202
201
200
199
196
193
192
191
187
184
183
183
181
175
174
173
173
172
172
172
172
171
167
167
167
166
165
165
163
163
161
157
156
156
154
151
143
136
134
131
129
125
125
124
120
120
118
117
116
115
113
113
112
112
112
108
105
104
103
102
99
97
97
96
95
88
87
86
85
83
76
73
71
69
69
68
68
68
66
63
61
61
55
54
53
52
52
52
47
47
44
43
42
41
41
39
36
34
33
31
31
31
27
23
22
